NAME : Bre-9
TYPE : CVRP
DIMENSION : 101
EDGE_WEIGHT_TYPE : EUC_2D 
CAPACITY : 100
NODE_COORD_SECTION
1 50 102
2 8 8
3 22 8
4 36 8
5 50 8
6 64 8
7 78 8
8 92 8
9 8 22
10 22 22
11 36 22
12 50 22
13 64 22
14 78 22
15 92 22
16 8 36
17 22 36
18 36 36
19 50 36
20 64 36
21 78 36
22 92 36
23 8 50
24 22 50
25 36 50
26 46 50
27 64 50
28 78 50
29 92 50
30 8 64
31 22 64
32 36 64
33 50 64
34 64 64
35 78 64
36 92 64
37 8 78
38 22 78
39 36 78
40 50 78
41 64 78
42 78 78
43 92 78
44 8 92
45 22 92
46 36 92
47 50 92
48 64 92
49 78 92
50 92 92
51 54 50
52 9 2
53 12 2
54 16 2
55 19 2
56 81 2
57 84 2
58 88 2
59 91 2
60 20 15
61 24 15
62 27 15
63 73 15
64 76 15
65 80 15
66 31 28
67 35 28
68 65 28
69 69 28
70 43 41
71 57 41
72 40 54
73 60 54
74 27 56
75 73 56
76 15 58
77 85 58
78 50 59
79 27 60
80 73 60
81 2 61
82 15 61
83 85 61
84 98 61
85 2 64
86 98 64
87 15 65
88 85 65
89 2 67
90 98 67
91 2 70
92 98 70
93 48 72
94 52 72
95 46 85
96 50 85
97 54 85
98 45 98
99 48 98
100 52 98
101 55 98
DEMAND_SECTION
1 0
2 4
3 8
4 12
5 16
6 4
7 8
8 12
9 16
10 4
11 8
12 12
13 16
14 4
15 8
16 12
17 16
18 4
19 8
20 12
21 16
22 4
23 8
24 12
25 16
26 4
27 8
28 12
29 16
30 4
31 8
32 12
33 16
34 4
35 8
36 12
37 16
38 4
39 8
40 12
41 16
42 4
43 8
44 12
45 16
46 4
47 8
48 12
49 16
50 4
51 8
52 12
53 16
54 4
55 8
56 12
57 16
58 4
59 8
60 12
61 16
62 4
63 8
64 12
65 16
66 4
67 8
68 12
69 16
70 4
71 8
72 12
73 16
74 4
75 8
76 12
77 16
78 4
79 8
80 12
81 16
82 4
83 8
84 12
85 16
86 4
87 8
88 12
89 16
90 4
91 8
92 12
93 16
94 4
95 8
96 12
97 16
98 4
99 8
100 12
101 16
DEPOT_SECTION
1 
-1
EOF
